
Gurobi 11.0.0 (win64, C++) logging started Mon Jul 28 17:29:27 2025

Set parameter TokenServer to value "141.76.38.119"
### START HEURISTIC APPROACH APPROACH ###
ProblemVariant: 1
### START PREPROCESSING ###
## Start start solution procedure ##
Not enough vehicles for start solution, copying existing vehicle(s)...
Copied 1 vehicle(s). Total vehicles now: 7
Start solution with 7 Vehicles and total costs 508.219 in 1.23524 s.
### END PREPROCESSING ###
Route 0 0-10-7-5-9-0 : weight util 1.000000 | volume util 0.450711 | infeasible with packing heuristic | feasible with CP model
Route 1 0-15-12-2-1-0 : weight util 1.000000 | volume util 0.450356 | infeasible with packing heuristic | feasible with CP model
Route 2 0-11-4-3-6-8-0 : weight util 0.975000 | volume util 0.485889 | infeasible with packing heuristic | feasible with CP model
Route 3 0-21-19-0 : weight util 0.800000 | volume util 0.196089 | infeasible with packing heuristic | feasible with CP model
Route 4 0-14-17-20-18-0 : weight util 1.000000 | volume util 0.498622 | infeasible with packing heuristic | feasible with CP model
Route 5 0-16-13-0 : weight util 0.850000 | volume util 0.151933 | infeasible with packing heuristic | feasible with CP model
